solution status: optimal solution found
objective value:                                    0
one.ctrl_s[0].hole_y                               20 	(obj:0)
one.ctrl_s[0].hole_z                               23 	(obj:0)
$_20__3_y                                         -11 	(obj:0)
$_20__3_z                                          25 	(obj:0)
one.thingy.devices[1].thingy.v0_y                   20 	(obj:0)
one.thingy.devices[1].thingy.v0_z                   20 	(obj:0)
$_21__3_y                                          25 	(obj:0)
$_21__3_z                                          15 	(obj:0)
one.thingy.devices[0].thingy.v0_y                   20 	(obj:0)
one.thingy.devices[0].thingy.v0_z                   22 	(obj:0)
$_24__3_y                                          22 	(obj:0)
$_24__3_z                                          25 	(obj:0)
$_19__3_y                                          25 	(obj:0)
$_19__3_z                                          21 	(obj:0)
$_23__3_y                                          25 	(obj:0)
$_23__3_z                                          19 	(obj:0)
one.thingy.devices[2].thingy.v0_y                   19 	(obj:0)
one.thingy.devices[2].thingy.v0_z                   17 	(obj:0)
one.thingy.devices[0].thingy.v12_y                   20 	(obj:0)
one.thingy.devices[0].thingy.v12_z                   24 	(obj:0)
$_25__3_y                                          17 	(obj:0)
$_25__3_z                                          15 	(obj:0)
$_22__3_y                                          25 	(obj:0)
$_22__3_z                                          20 	(obj:0)
one.ctrl_s[0].flush_y                              16 	(obj:0)
one.ctrl_s[0].flush_z                              17 	(obj:0)
one.thingy.devices[3].thingy.v0_y                   17 	(obj:0)
one.thingy.devices[3].thingy.v0_z                   16 	(obj:0)
one.thingy.devices[2].thingy.v12_y                   19 	(obj:0)
one.thingy.devices[2].thingy.v12_z                   18 	(obj:0)
one.thingy.devices[1].thingy.v12_y                   19 	(obj:0)
one.thingy.devices[1].thingy.v12_z                   20 	(obj:0)
$_18__3_y                                          25 	(obj:0)
$_18__3_z                                           7 	(obj:0)
one.thingy.devices[3].thingy.v12_y                   16 	(obj:0)
one.thingy.devices[3].thingy.v12_z                   15 	(obj:0)
